&CONTROL
                 calculation = 'scf' ,
                      outdir = './tmp' ,
                  pseudo_dir = 'dir/to/pseudopotentials' ,
                      prefix = 'pwscf' ,
                   verbosity = 'low' ,
 /
 &SYSTEM
                       ibrav = 2,
                   celldm(1) = 7.6525971195,
                         nat = 1,
                        ntyp = 1,
                     ecutwfc = 30 ,
                     ecutrho = 120 ,
                 occupations = 'smearing' ,
                     degauss = 0.005 ,
                    smearing = 'marzari-vanderbilt' ,
 /
 &ELECTRONS
                    conv_thr = 1d-06 ,
                 mixing_beta = 0.7d0 ,
 /
ATOMIC_SPECIES
   Al   26.98150  Al.pz-n-rrkjus_psl.0.1.UPF 
ATOMIC_POSITIONS crystal 
   Al      0.000000000    0.000000000    0.000000000    
K_POINTS automatic 
  8 8 8   0 0 0